NAME : ClusterId_254 
COMMENT : (Gillet and Johnson) 
TYPE : CVRP 
DIMENSION : 1 
EDGE_WEIGHT_TYPE : EUC_2D 
CAPACITY : 500 
NODE_COORD_SECTION 
254 75 0 
DEMAND_SECTION 
254 100
DEPOT_SECTION 
254
 -1
EOF